\* Problem: Partitionnement *\

Minimize
 obj: + 244 x1 + 538 x2 + 478 x3 + 826 x4 + 406 x5 + 74 x6 + 540 x7
 + 348 x8 + 468 x9 + 767 x10 + 561 x11 + 1042 x12 + 576 x13 + 247 x14
 + 662 x15 + 579 x16 + 659 x17 + 1006 x18 + 837 x19 + 670 x20 + 597 x21
 + 842 x22 + 537 x23 + 894 x24 + 1301 x25 + 874 x26 + 510 x27 + 977 x28
 + 819 x29 + 695 x30 + 895 x31 + 879 x32 + 1039 x33 + 830 x34 + 1193 x35
 + 438 x36 + 582 x37 + 531 x38 + 859 x39 + 558 x40 + 408 x41 + 533 x42
 + 707 x43 + 1007 x44 + 727 x45 + 1084 x46 + 1053 x47 + 840 x48
 + 770 x49 + 964 x50 + 766 x51 + 1085 x52 + 1359 x53 + 893 x54 + 564 x55
 + 979 x56 + 896 x57 + 778 x58 + 1065 x59 + 1045 x60 + 1161 x61
 + 1046 x62 + 1384 x63 + 579 x64 + 704 x65 + 701 x66 + 991 x67 + 665 x68
 + 581 x69 + 662 x70 + 829 x71 + 1077 x72 + 918 x73 + 1305 x74
 + 1138 x75 + 1033 x76 + 1279 x77 + 1005 x78 + 1121 x79 + 906 x80
 + 890 x81 + 1050 x82 + 836 x83 + 1193 x84 + 702 x85 + 846 x86 + 669 x87
 + 1026 x88 + 860 x89 + 596 x90 + 953 x91 + 841 x92 + 1198 x93 + 893 x94
 + 1363 x95 + 1315 x96 + 1476 x97 + 1301 x98 + 1420 x99 + 874 x100
 + 1019 x101 + 999 x102 + 1086 x103 + 994 x104 + 844 x105 + 727 x106
 + 1144 x107 + 1194 x108 + 954 x109 + 927 x110 + 1071 x111 + 899 x112
 + 1262 x113 + 1057 x114 + 883 x115 + 1246 x116 + 1043 x117 + 1406 x118
 + 1197 x119 + 600 x120 + 563 x121 + 891 x122 + 707 x123 + 1035 x124
 + 910 x125 + 725 x126 + 1017 x127 + 787 x128 + 1086 x129 + 1370 x130
 + 1157 x131 + 1087 x132 + 1281 x133 + 1083 x134 + 1204 x135 + 1076 x136
 + 1056 x137 + 1172 x138 + 1052 x139 + 1384 x140 + 843 x141 + 968 x142
 + 839 x143 + 1196 x144 + 967 x145 + 769 x146 + 1088 x147 + 963 x148
 + 1320 x149 + 1084 x150 + 1382 x151 + 1369 x152 + 1478 x153 + 1363 x154
 + 1503 x155 + 925 x156 + 1021 x157 + 1018 x158 + 1110 x159 + 997 x160
 + 898 x161 + 781 x162 + 1146 x163 + 1196 x164 + 1037 x165 + 1068 x166
 + 1193 x167 + 1069 x168 + 1432 x169 + 1164 x170 + 1049 x171 + 1387 x172
 + 1165 x173 + 1528 x174 + 707 x175 + 704 x176 + 1023 x177 + 829 x178
 + 1119 x179 + 1080 x180 + 832 x181 + 1095 x182 + 921 x183 + 1208 x184
 + 1374 x185 + 1326 x186 + 1487 x187 + 1307 x188 + 1420 x189 + 1138 x190
 + 1283 x191 + 1137 x192 + 1253 x193 + 1296 x194 + 1032 x195 + 1153 x196
 + 1278 x197 + 1425 x198 + 1120 x199 + 938 x200 + 1082 x201 + 905 x202
 + 1262 x203 + 1068 x204 + 889 x205 + 1246 x206 + 1049 x207 + 1406 x208
 + 1197 x209 + 864 x210 + 701 x211 + 1058 x212 + 845 x213 + 1202 x214
 + 1048 x215 + 859 x216 + 1216 x217 + 953 x218 + 1220 x219 + 1363 x220
 + 1508 x221 + 1367 x222 + 1489 x223 + 1493 x224 + 1319 x225 + 1452 x226
 + 1480 x227 + 1633 x228 + 1424 x229 + 1036 x230 + 999 x231 + 1091 x232
 + 1144 x233 + 1236 x234 + 1137 x235 + 1161 x236 + 1211 x237 + 986 x238
 + 1313 x239 + 1089 x240 + 931 x241 + 1294 x242 + 1075 x243 + 1438 x244
 + 1278 x245 + 1061 x246 + 1424 x247 + 1257 x248 + 1422 x249 + 725 x250
 + 1053 x251 + 942 x252 + 1086 x253 + 1104 x254 + 1189 x255 + 1285 x256
 + 1313 x257 + 1207 x258 + 1079 x259 + 1175 x260 + 971 x261 + 842 x262
 + 1199 x263 + 1324 x264 + 966 x265 + 1323 x266 + 1053 x267 + 1151 x268
 + 1374 x269 + 1519 x270 + 1504 x271 + 1300 x272 + 1137 x273 + 1285 x274
 + 1282 x275 + 1429 x276 + 1295 x277 + 1443 x278 + 1100 x279 + 1294 x280
 + 1424 x281 + 863 x282 + 1220 x283 + 1080 x284 + 1238 x285 + 1525 x286
 + 1161 x287 + 1253 x288

Subject To
 r_1: + x268 + x267 + x266 + x265 + x264 + x263 + x262 + x261 + x260
 + x259 + x258 + x257 + x256 + x255 + x184 + x183 + x182 + x181 + x180
 + x179 + x178 + x177 + x176 + x175 + x174 + x173 + x172 + x171 + x170
 + x169 + x168 + x167 + x166 + x165 + x164 + x163 + x162 + x161 + x160
 + x159 + x158 + x157 + x156 + x155 + x154 + x153 + x152 + x151 + x150
 + x149 + x148 + x147 + x146 + x145 + x144 + x143 + x142 + x141 + x140
 + x139 + x138 + x137 + x136 + x135 + x134 + x133 + x132 + x131 + x130
 + x73 + x72 + x71 + x70 + x69 + x68 + x67 + x66 + x65 + x64 + x63 + x62
 + x61 + x60 + x59 + x58 + x57 + x56 + x55 + x54 + x53 + x52 + x51 + x50
 + x49 + x48 + x47 + x46 + x17 + x16 + x15 + x14 + x13 + x12 + x11 + x10
 + x1 = 1
 r_2: + x285 + x284 + x283 + x282 + x281 + x280 + x279 + x278 + x277
 + x276 + x275 + x274 + x273 + x272 + x271 + x270 + x269 + x266 + x265
 + x264 + x263 + x262 + x261 + x260 + x259 + x258 + x257 + x256 + x255
 + x219 + x218 + x217 + x216 + x215 + x214 + x213 + x212 + x211 + x210
 + x209 + x208 + x207 + x206 + x205 + x204 + x203 + x202 + x201 + x200
 + x199 + x198 + x197 + x196 + x195 + x194 + x193 + x192 + x191 + x190
 + x189 + x188 + x187 + x186 + x185 + x150 + x149 + x148 + x147 + x146
 + x145 + x144 + x143 + x142 + x141 + x140 + x139 + x138 + x137 + x136
 + x135 + x134 + x133 + x132 + x131 + x130 + x94 + x93 + x92 + x91 + x90
 + x89 + x88 + x87 + x86 + x85 + x84 + x83 + x82 + x81 + x80 + x79 + x78
 + x77 + x76 + x75 + x74 + x52 + x51 + x50 + x49 + x48 + x47 + x46 + x24
 + x23 + x22 + x21 + x20 + x19 + x18 + x10 + x2 = 1
 r_3: + x288 + x287 + x286 + x278 + x277 + x276 + x275 + x274 + x273
 + x272 + x271 + x270 + x269 + x267 + x258 + x257 + x256 + x255 + x239
 + x238 + x237 + x236 + x235 + x234 + x233 + x232 + x231 + x230 + x229
 + x228 + x227 + x226 + x225 + x224 + x223 + x222 + x221 + x220 + x199
 + x198 + x197 + x196 + x195 + x194 + x193 + x192 + x191 + x190 + x189
 + x188 + x187 + x186 + x185 + x165 + x164 + x163 + x162 + x161 + x160
 + x159 + x158 + x157 + x156 + x155 + x154 + x153 + x152 + x151 + x135
 + x134 + x133 + x132 + x131 + x130 + x109 + x108 + x107 + x106 + x105
 + x104 + x103 + x102 + x101 + x100 + x99 + x98 + x97 + x96 + x95 + x79
 + x78 + x77 + x76 + x75 + x74 + x58 + x57 + x56 + x55 + x54 + x53 + x46
 + x30 + x29 + x28 + x27 + x26 + x25 + x18 + x11 + x3 = 1
 r_4: + x286 + x281 + x280 + x279 + x271 + x270 + x269 + x260 + x259
 + x249 + x248 + x247 + x246 + x245 + x244 + x243 + x242 + x241 + x240
 + x229 + x228 + x227 + x226 + x225 + x224 + x223 + x222 + x221 + x220
 + x209 + x208 + x207 + x206 + x205 + x204 + x203 + x202 + x201 + x200
 + x189 + x188 + x187 + x186 + x185 + x174 + x173 + x172 + x171 + x170
 + x169 + x168 + x167 + x166 + x155 + x154 + x153 + x152 + x151 + x140
 + x139 + x138 + x137 + x136 + x130 + x119 + x118 + x117 + x116 + x115
 + x114 + x113 + x112 + x111 + x110 + x99 + x98 + x97 + x96 + x95 + x84
 + x83 + x82 + x81 + x80 + x74 + x63 + x62 + x61 + x60 + x59 + x53 + x47
 + x35 + x34 + x33 + x32 + x31 + x25 + x19 + x12 + x4 = 1
 r_5: + x288 + x287 + x286 + x284 + x283 + x282 + x280 + x279 + x276
 + x275 + x274 + x273 + x272 + x270 + x269 + x268 + x267 + x264 + x263
 + x262 + x261 + x259 + x256 + x255 + x253 + x252 + x251 + x250 + x245
 + x244 + x243 + x242 + x241 + x240 + x235 + x234 + x233 + x232 + x231
 + x230 + x223 + x222 + x221 + x220 + x215 + x214 + x213 + x212 + x211
 + x210 + x203 + x202 + x201 + x200 + x193 + x192 + x191 + x190 + x185
 + x180 + x179 + x178 + x177 + x176 + x175 + x169 + x168 + x167 + x166
 + x159 + x158 + x157 + x156 + x151 + x144 + x143 + x142 + x141 + x136
 + x131 + x125 + x124 + x123 + x122 + x121 + x120 + x113 + x112 + x111
 + x110 + x103 + x102 + x101 + x100 + x95 + x88 + x87 + x86 + x85 + x80
 + x75 + x67 + x66 + x65 + x64 + x59 + x54 + x48 + x39 + x38 + x37 + x36
 + x31 + x26 + x20 + x13 + x5 = 1
 r_6: + x288 + x287 + x286 + x285 + x284 + x283 + x282 + x281 + x280
 + x279 + x278 + x277 + x274 + x273 + x272 + x271 + x269 + x268 + x267
 + x266 + x265 + x263 + x262 + x261 + x260 + x259 + x258 + x257 + x255
 + x254 + x252 + x251 + x250 + x248 + x247 + x246 + x242 + x241 + x240
 + x238 + x237 + x236 + x232 + x231 + x230 + x226 + x225 + x224 + x220
 + x218 + x217 + x216 + x212 + x211 + x210 + x206 + x205 + x204 + x200
 + x196 + x195 + x194 + x190 + x186 + x183 + x182 + x181 + x177 + x176
 + x175 + x172 + x171 + x170 + x166 + x162 + x161 + x160 + x156 + x152
 + x147 + x146 + x145 + x141 + x137 + x132 + x128 + x127 + x126 + x122
 + x121 + x120 + x116 + x115 + x114 + x110 + x106 + x105 + x104 + x100
 + x96 + x91 + x90 + x89 + x85 + x81 + x76 + x70 + x69 + x68 + x64 + x60
 + x55 + x49 + x42 + x41 + x40 + x36 + x32 + x27 + x21 + x14 + x6 = 1
 r_7: + x288 + x287 + x286 + x285 + x283 + x282 + x281 + x279 + x278
 + x277 + x276 + x275 + x272 + x271 + x270 + x268 + x267 + x266 + x265
 + x264 + x261 + x260 + x257 + x256 + x254 + x253 + x251 + x250 + x249
 + x247 + x246 + x244 + x243 + x240 + x239 + x237 + x236 + x234 + x233
 + x230 + x228 + x227 + x224 + x221 + x219 + x217 + x216 + x214 + x213
 + x210 + x208 + x207 + x204 + x201 + x198 + x197 + x194 + x191 + x187
 + x184 + x182 + x181 + x179 + x178 + x175 + x174 + x173 + x170 + x167
 + x164 + x163 + x160 + x157 + x153 + x149 + x148 + x145 + x142 + x138
 + x133 + x129 + x127 + x126 + x124 + x123 + x120 + x118 + x117 + x114
 + x111 + x108 + x107 + x104 + x101 + x97 + x93 + x92 + x89 + x86 + x82
 + x77 + x72 + x71 + x68 + x65 + x61 + x56 + x50 + x44 + x43 + x40 + x37
 + x33 + x28 + x22 + x15 + x7 = 1
 r_8: + x287 + x285 + x284 + x282 + x277 + x275 + x273 + x265 + x262
 + x254 + x253 + x252 + x250 + x249 + x248 + x246 + x245 + x243 + x241
 + x239 + x238 + x236 + x235 + x233 + x231 + x229 + x227 + x225 + x222
 + x219 + x218 + x216 + x215 + x213 + x211 + x209 + x207 + x205 + x202
 + x199 + x197 + x195 + x192 + x188 + x184 + x183 + x181 + x180 + x178
 + x176 + x173 + x171 + x168 + x165 + x163 + x161 + x158 + x154 + x150
 + x148 + x146 + x143 + x139 + x134 + x129 + x128 + x126 + x125 + x123
 + x121 + x119 + x117 + x115 + x112 + x109 + x107 + x105 + x102 + x98
 + x94 + x92 + x90 + x87 + x83 + x78 + x73 + x71 + x69 + x66 + x62 + x57
 + x51 + x45 + x43 + x41 + x38 + x34 + x29 + x23 + x16 + x8 = 1
 r_9: + x288 + x285 + x284 + x283 + x281 + x280 + x278 + x276 + x274
 + x268 + x266 + x264 + x263 + x258 + x254 + x253 + x252 + x251 + x249
 + x248 + x247 + x245 + x244 + x242 + x239 + x238 + x237 + x235 + x234
 + x232 + x229 + x228 + x226 + x223 + x219 + x218 + x217 + x215 + x214
 + x212 + x209 + x208 + x206 + x203 + x199 + x198 + x196 + x193 + x189
 + x184 + x183 + x182 + x180 + x179 + x177 + x174 + x172 + x169 + x165
 + x164 + x162 + x159 + x155 + x150 + x149 + x147 + x144 + x140 + x135
 + x129 + x128 + x127 + x125 + x124 + x122 + x119 + x118 + x116 + x113
 + x109 + x108 + x106 + x103 + x99 + x94 + x93 + x91 + x88 + x84 + x79
 + x73 + x72 + x70 + x67 + x63 + x58 + x52 + x45 + x44 + x42 + x39 + x35
 + x30 + x24 + x17 + x9 = 1

Bounds
 0 <= x1 <= 1
 0 <= x2 <= 1
 0 <= x3 <= 1
 0 <= x4 <= 1
 0 <= x5 <= 1
 0 <= x6 <= 1
 0 <= x7 <= 1
 0 <= x8 <= 1
 0 <= x9 <= 1
 0 <= x10 <= 1
 0 <= x11 <= 1
 0 <= x12 <= 1
 0 <= x13 <= 1
 0 <= x14 <= 1
 0 <= x15 <= 1
 0 <= x16 <= 1
 0 <= x17 <= 1
 0 <= x18 <= 1
 0 <= x19 <= 1
 0 <= x20 <= 1
 0 <= x21 <= 1
 0 <= x22 <= 1
 0 <= x23 <= 1
 0 <= x24 <= 1
 0 <= x25 <= 1
 0 <= x26 <= 1
 0 <= x27 <= 1
 0 <= x28 <= 1
 0 <= x29 <= 1
 0 <= x30 <= 1
 0 <= x31 <= 1
 0 <= x32 <= 1
 0 <= x33 <= 1
 0 <= x34 <= 1
 0 <= x35 <= 1
 0 <= x36 <= 1
 0 <= x37 <= 1
 0 <= x38 <= 1
 0 <= x39 <= 1
 0 <= x40 <= 1
 0 <= x41 <= 1
 0 <= x42 <= 1
 0 <= x43 <= 1
 0 <= x44 <= 1
 0 <= x45 <= 1
 0 <= x46 <= 1
 0 <= x47 <= 1
 0 <= x48 <= 1
 0 <= x49 <= 1
 0 <= x50 <= 1
 0 <= x51 <= 1
 0 <= x52 <= 1
 0 <= x53 <= 1
 0 <= x54 <= 1
 0 <= x55 <= 1
 0 <= x56 <= 1
 0 <= x57 <= 1
 0 <= x58 <= 1
 0 <= x59 <= 1
 0 <= x60 <= 1
 0 <= x61 <= 1
 0 <= x62 <= 1
 0 <= x63 <= 1
 0 <= x64 <= 1
 0 <= x65 <= 1
 0 <= x66 <= 1
 0 <= x67 <= 1
 0 <= x68 <= 1
 0 <= x69 <= 1
 0 <= x70 <= 1
 0 <= x71 <= 1
 0 <= x72 <= 1
 0 <= x73 <= 1
 0 <= x74 <= 1
 0 <= x75 <= 1
 0 <= x76 <= 1
 0 <= x77 <= 1
 0 <= x78 <= 1
 0 <= x79 <= 1
 0 <= x80 <= 1
 0 <= x81 <= 1
 0 <= x82 <= 1
 0 <= x83 <= 1
 0 <= x84 <= 1
 0 <= x85 <= 1
 0 <= x86 <= 1
 0 <= x87 <= 1
 0 <= x88 <= 1
 0 <= x89 <= 1
 0 <= x90 <= 1
 0 <= x91 <= 1
 0 <= x92 <= 1
 0 <= x93 <= 1
 0 <= x94 <= 1
 0 <= x95 <= 1
 0 <= x96 <= 1
 0 <= x97 <= 1
 0 <= x98 <= 1
 0 <= x99 <= 1
 0 <= x100 <= 1
 0 <= x101 <= 1
 0 <= x102 <= 1
 0 <= x103 <= 1
 0 <= x104 <= 1
 0 <= x105 <= 1
 0 <= x106 <= 1
 0 <= x107 <= 1
 0 <= x108 <= 1
 0 <= x109 <= 1
 0 <= x110 <= 1
 0 <= x111 <= 1
 0 <= x112 <= 1
 0 <= x113 <= 1
 0 <= x114 <= 1
 0 <= x115 <= 1
 0 <= x116 <= 1
 0 <= x117 <= 1
 0 <= x118 <= 1
 0 <= x119 <= 1
 0 <= x120 <= 1
 0 <= x121 <= 1
 0 <= x122 <= 1
 0 <= x123 <= 1
 0 <= x124 <= 1
 0 <= x125 <= 1
 0 <= x126 <= 1
 0 <= x127 <= 1
 0 <= x128 <= 1
 0 <= x129 <= 1
 0 <= x130 <= 1
 0 <= x131 <= 1
 0 <= x132 <= 1
 0 <= x133 <= 1
 0 <= x134 <= 1
 0 <= x135 <= 1
 0 <= x136 <= 1
 0 <= x137 <= 1
 0 <= x138 <= 1
 0 <= x139 <= 1
 0 <= x140 <= 1
 0 <= x141 <= 1
 0 <= x142 <= 1
 0 <= x143 <= 1
 0 <= x144 <= 1
 0 <= x145 <= 1
 0 <= x146 <= 1
 0 <= x147 <= 1
 0 <= x148 <= 1
 0 <= x149 <= 1
 0 <= x150 <= 1
 0 <= x151 <= 1
 0 <= x152 <= 1
 0 <= x153 <= 1
 0 <= x154 <= 1
 0 <= x155 <= 1
 0 <= x156 <= 1
 0 <= x157 <= 1
 0 <= x158 <= 1
 0 <= x159 <= 1
 0 <= x160 <= 1
 0 <= x161 <= 1
 0 <= x162 <= 1
 0 <= x163 <= 1
 0 <= x164 <= 1
 0 <= x165 <= 1
 0 <= x166 <= 1
 0 <= x167 <= 1
 0 <= x168 <= 1
 0 <= x169 <= 1
 0 <= x170 <= 1
 0 <= x171 <= 1
 0 <= x172 <= 1
 0 <= x173 <= 1
 0 <= x174 <= 1
 0 <= x175 <= 1
 0 <= x176 <= 1
 0 <= x177 <= 1
 0 <= x178 <= 1
 0 <= x179 <= 1
 0 <= x180 <= 1
 0 <= x181 <= 1
 0 <= x182 <= 1
 0 <= x183 <= 1
 0 <= x184 <= 1
 0 <= x185 <= 1
 0 <= x186 <= 1
 0 <= x187 <= 1
 0 <= x188 <= 1
 0 <= x189 <= 1
 0 <= x190 <= 1
 0 <= x191 <= 1
 0 <= x192 <= 1
 0 <= x193 <= 1
 0 <= x194 <= 1
 0 <= x195 <= 1
 0 <= x196 <= 1
 0 <= x197 <= 1
 0 <= x198 <= 1
 0 <= x199 <= 1
 0 <= x200 <= 1
 0 <= x201 <= 1
 0 <= x202 <= 1
 0 <= x203 <= 1
 0 <= x204 <= 1
 0 <= x205 <= 1
 0 <= x206 <= 1
 0 <= x207 <= 1
 0 <= x208 <= 1
 0 <= x209 <= 1
 0 <= x210 <= 1
 0 <= x211 <= 1
 0 <= x212 <= 1
 0 <= x213 <= 1
 0 <= x214 <= 1
 0 <= x215 <= 1
 0 <= x216 <= 1
 0 <= x217 <= 1
 0 <= x218 <= 1
 0 <= x219 <= 1
 0 <= x220 <= 1
 0 <= x221 <= 1
 0 <= x222 <= 1
 0 <= x223 <= 1
 0 <= x224 <= 1
 0 <= x225 <= 1
 0 <= x226 <= 1
 0 <= x227 <= 1
 0 <= x228 <= 1
 0 <= x229 <= 1
 0 <= x230 <= 1
 0 <= x231 <= 1
 0 <= x232 <= 1
 0 <= x233 <= 1
 0 <= x234 <= 1
 0 <= x235 <= 1
 0 <= x236 <= 1
 0 <= x237 <= 1
 0 <= x238 <= 1
 0 <= x239 <= 1
 0 <= x240 <= 1
 0 <= x241 <= 1
 0 <= x242 <= 1
 0 <= x243 <= 1
 0 <= x244 <= 1
 0 <= x245 <= 1
 0 <= x246 <= 1
 0 <= x247 <= 1
 0 <= x248 <= 1
 0 <= x249 <= 1
 0 <= x250 <= 1
 0 <= x251 <= 1
 0 <= x252 <= 1
 0 <= x253 <= 1
 0 <= x254 <= 1
 0 <= x255 <= 1
 0 <= x256 <= 1
 0 <= x257 <= 1
 0 <= x258 <= 1
 0 <= x259 <= 1
 0 <= x260 <= 1
 0 <= x261 <= 1
 0 <= x262 <= 1
 0 <= x263 <= 1
 0 <= x264 <= 1
 0 <= x265 <= 1
 0 <= x266 <= 1
 0 <= x267 <= 1
 0 <= x268 <= 1
 0 <= x269 <= 1
 0 <= x270 <= 1
 0 <= x271 <= 1
 0 <= x272 <= 1
 0 <= x273 <= 1
 0 <= x274 <= 1
 0 <= x275 <= 1
 0 <= x276 <= 1
 0 <= x277 <= 1
 0 <= x278 <= 1
 0 <= x279 <= 1
 0 <= x280 <= 1
 0 <= x281 <= 1
 0 <= x282 <= 1
 0 <= x283 <= 1
 0 <= x284 <= 1
 0 <= x285 <= 1
 0 <= x286 <= 1
 0 <= x287 <= 1
 0 <= x288 <= 1

Generals
 x1
 x2
 x3
 x4
 x5
 x6
 x7
 x8
 x9
 x10
 x11
 x12
 x13
 x14
 x15
 x16
 x17
 x18
 x19
 x20
 x21
 x22
 x23
 x24
 x25
 x26
 x27
 x28
 x29
 x30
 x31
 x32
 x33
 x34
 x35
 x36
 x37
 x38
 x39
 x40
 x41
 x42
 x43
 x44
 x45
 x46
 x47
 x48
 x49
 x50
 x51
 x52
 x53
 x54
 x55
 x56
 x57
 x58
 x59
 x60
 x61
 x62
 x63
 x64
 x65
 x66
 x67
 x68
 x69
 x70
 x71
 x72
 x73
 x74
 x75
 x76
 x77
 x78
 x79
 x80
 x81
 x82
 x83
 x84
 x85
 x86
 x87
 x88
 x89
 x90
 x91
 x92
 x93
 x94
 x95
 x96
 x97
 x98
 x99
 x100
 x101
 x102
 x103
 x104
 x105
 x106
 x107
 x108
 x109
 x110
 x111
 x112
 x113
 x114
 x115
 x116
 x117
 x118
 x119
 x120
 x121
 x122
 x123
 x124
 x125
 x126
 x127
 x128
 x129
 x130
 x131
 x132
 x133
 x134
 x135
 x136
 x137
 x138
 x139
 x140
 x141
 x142
 x143
 x144
 x145
 x146
 x147
 x148
 x149
 x150
 x151
 x152
 x153
 x154
 x155
 x156
 x157
 x158
 x159
 x160
 x161
 x162
 x163
 x164
 x165
 x166
 x167
 x168
 x169
 x170
 x171
 x172
 x173
 x174
 x175
 x176
 x177
 x178
 x179
 x180
 x181
 x182
 x183
 x184
 x185
 x186
 x187
 x188
 x189
 x190
 x191
 x192
 x193
 x194
 x195
 x196
 x197
 x198
 x199
 x200
 x201
 x202
 x203
 x204
 x205
 x206
 x207
 x208
 x209
 x210
 x211
 x212
 x213
 x214
 x215
 x216
 x217
 x218
 x219
 x220
 x221
 x222
 x223
 x224
 x225
 x226
 x227
 x228
 x229
 x230
 x231
 x232
 x233
 x234
 x235
 x236
 x237
 x238
 x239
 x240
 x241
 x242
 x243
 x244
 x245
 x246
 x247
 x248
 x249
 x250
 x251
 x252
 x253
 x254
 x255
 x256
 x257
 x258
 x259
 x260
 x261
 x262
 x263
 x264
 x265
 x266
 x267
 x268
 x269
 x270
 x271
 x272
 x273
 x274
 x275
 x276
 x277
 x278
 x279
 x280
 x281
 x282
 x283
 x284
 x285
 x286
 x287
 x288

End
